networks/zoo_168_1395/zoo_168_1395-lower.txt
Number of groups: 79
Flow 5: {31 8 0} {8 30 1} {30 76 2} {76 9 3} {9 93 4} 
Flow 35: {36 41 0} {41 42 1} {42 44 2} {44 1 3} {1 45 4} 
Flow 74: {42 126 0} 
Flow 77: {76 30 0} {30 8 1} {8 31 2} {31 46 3} {46 130 4} 
Flow 197: {72 7 0} {7 55 1} {55 49 2} {49 21 3} {21 105 4} 
Flow 230: {59 16 0} {16 100 1} 
Flow 239: {61 12 0} {12 56 1} {56 140 2} 
Flow 272: {16 20 0} {20 39 1} {39 38 2} {38 122 3} 
Flow 293: {16 59 0} {59 58 1} {58 65 2} {65 149 3} 
Flow 343: {22 19 0} {19 32 1} {32 24 2} {24 26 3} {26 110 4} 
Flow 365: {4 3 0} {3 87 1} 
Flow 366: {54 4 0} {4 88 1} 
Flow 385: {53 6 0} {6 28 1} {28 27 2} {27 111 3} 
Flow 386: {14 76 0} 
Flow 398: {44 42 0} {42 43 1} {43 127 2} 
Flow 405: {79 18 0} {18 50 1} {50 134 2} 
Flow 411: {3 57 0} {57 141 1} 
Flow 416: {64 63 0} {63 147 1} 
Flow 417: {17 64 0} {64 148 1} 
Flow 419: {66 150 0} 
Flow 424: {63 51 0} {51 71 1} {71 155 2} 
Flow 432: {37 81 0} {81 165 1} 
Flow 443: {26 6 0} {6 53 1} {53 61 2} {61 38 3} 
Flow 468: {25 29 0} {29 27 1} {27 28 2} {28 6 3} {6 90 4} 
Flow 480: {10 9 0} {9 76 1} {76 160 2} 
Flow 486: {49 55 0} {55 7 1} {7 91 2} 
Flow 496: {27 29 1} {29 25 2} {25 32 3} {32 116 4} 
Flow 550: {33 20 2} {20 60 3} {60 144 4} 
Flow 569: {20 16 0} 
Flow 639: {38 39 0} {39 20 1} {20 15 2} {15 59 3} {59 143 4} 
Flow 640: {38 61 0} {61 145 1} 
Flow 650: {39 60 0} {60 13 1} {13 97 2} 
Flow 660: {20 33 0} {33 117 1} 
Flow 681: {40 41 0} 
Flow 691: {9 10 0} {10 11 1} {11 95 2} 
Flow 692: {76 14 0} {14 56 1} {56 12 2} {12 96 3} 
Flow 696: {21 23 0} {23 19 1} {19 17 2} {17 101 3} 
Flow 702: {2 46 0} {46 31 1} {31 115 2} 
Flow 710: {45 129 0} 
Flow 779: {51 63 0} {63 64 1} {64 17 2} {17 19 3} {19 103 4} 
Flow 806: {18 79 0} {79 78 1} {78 80 2} {80 35 3} {35 119 4} 
Flow 815: {41 36 0} {36 54 1} {54 138 2} 
Flow 866: {5 66 0} {66 6 1} {6 26 2} {26 24 3} {24 108 4} 
Flow 871: {12 61 0} {61 34 1} {34 118 2} 
Flow 885: {47 48 0} {48 132 1} 
Flow 888: {69 68 0} {68 52 1} {52 136 2} 
Flow 894: {24 32 0} {32 19 1} {19 22 2} {22 62 3} {62 146 4} 
Flow 899: {56 67 0} {67 151 1} 
Flow 901: {62 70 0} {70 69 1} {69 153 2} 
Flow 904: {48 79 0} {79 75 1} {75 74 2} {74 158 3} 
Flow 928: {57 3 0} {3 4 1} {4 54 2} {54 36 3} {36 120 4} 
Flow 941: {45 2 0} {2 72 1} {72 156 2} 
Flow 983: {42 41 0} {41 125 1} 
Flow 1005: {13 67 0} {67 56 1} {56 11 2} {11 5 3} {5 89 4} 
Flow 1017: {46 2 0} {2 45 1} {45 1 2} {1 44 3} {44 128 4} 
Flow 1021: {60 20 0} {20 34 1} {34 61 2} {61 53 3} {53 137 4} 
Flow 1045: {52 73 0} {73 50 1} {50 18 2} {18 102 3} 
Flow 1053: {71 69 0} {69 70 1} {70 47 2} {47 131 3} 
Flow 1062: {78 162 0} 
Flow 1069: {6 66 0} {66 5 1} {5 11 2} {11 10 3} {10 94 4} 
Flow 1098: {65 58 0} {58 59 1} {59 15 2} {15 20 3} 
Flow 1121: {67 13 0} {13 60 1} {60 39 2} {39 123 3} 
Flow 1147: {19 23 0} {23 107 1} 
Flow 1203: {7 72 0} {72 2 1} {2 86 2} 
Flow 1225: {68 69 0} {69 71 1} {71 51 2} {51 135 3} 
Flow 1269: {75 79 0} {79 163 1} 
Flow 1270: {80 164 0} 
Flow 1308: {48 47 0} {47 70 1} {70 154 2} 
Flow 1327: {34 20 0} {20 104 1} 
Flow 1329: {70 62 0} {62 22 1} {22 106 2} 
Flow 1339: {11 56 0} {56 14 1} {14 37 2} {37 121 3} 
Flow 1342: {41 40 0} {40 124 1} 
Flow 1350: {23 21 0} {21 49 1} {49 133 2} 
Flow 1359: {50 73 0} {73 52 1} {52 68 2} {68 152 3} 
Flow 1363: {75 159 0} 
Flow 1367: {35 82 0} {82 166 1} 
Flow 1368: {57 84 0} {84 168 1} 
Flow 1385: {81 37 0} {37 14 1} {14 98 2} 
Flow 1393: {82 35 0} {35 80 1} {80 78 2} {78 79 3} {79 48 4} 
Time taken running everything: 8 seconds
