networks/zoo_168_1395/zoo_168_1395-lower.sol
<?xml version = "1.0" encoding="UTF-8" standalone="yes"?>
<CPLEXSolution version="1.2">
 <header
   problemName="networks/zoo_168_1395/zoo_168_1395-lower.lp"
   solutionName="incumbent"
   solutionIndex="-1"
   objectiveValue="72"
   solutionTypeValue="3"
   solutionTypeString="primal"
   solutionStatusValue="101"
   solutionStatusString="integer optimal solution"
   solutionMethodString="mip"
   primalFeasible="1"
   dualFeasible="1"
   MIPNodes="0"
   MIPIterations="0"
   writeLevel="3"/>
 <quality
   epInt="1.0000000000000001e-05"
   epRHS="9.9999999999999995e-07"
   maxIntInfeas="0"
   maxPrimalInfeas="0"
   maxX="1"
   maxSlack="1"/>
 <variables>
  <variable name="Y(1,56)" index="55" value="1"/>
  <variable name="Y(2,5)" index="158" value="1"/>
  <variable name="Y(3,6)" index="313" value="1"/>
  <variable name="Y(4,7)" index="468" value="1"/>
  <variable name="Y(5,9)" index="624" value="1"/>
  <variable name="Y(6,10)" index="779" value="1"/>
  <variable name="Y(7,11)" index="934" value="1"/>
  <variable name="Y(8,14)" index="1091" value="1"/>
  <variable name="Y(9,16)" index="1247" value="1"/>
  <variable name="Y(10,18)" index="1403" value="1"/>
  <variable name="Y(11,19)" index="1558" value="1"/>
  <variable name="Y(12,26)" index="1719" value="1"/>
  <variable name="Y(13,32)" index="1879" value="1"/>
  <variable name="Y(14,33)" index="2034" value="1"/>
  <variable name="Y(15,35)" index="2190" value="1"/>
  <variable name="Y(16,36)" index="2345" value="1"/>
  <variable name="Y(17,39)" index="2502" value="1"/>
  <variable name="Y(18,44)" index="2661" value="1"/>
  <variable name="Y(19,45)" index="2816" value="1"/>
  <variable name="Y(20,46)" index="2971" value="1"/>
  <variable name="Y(21,47)" index="3126" value="1"/>
  <variable name="Y(22,51)" index="3284" value="1"/>
  <variable name="Y(23,53)" index="3440" value="1"/>
  <variable name="Y(24,54)" index="3595" value="1"/>
  <variable name="Y(26,59)" index="3908" value="1"/>
  <variable name="Y(27,60)" index="4063" value="1"/>
  <variable name="Y(28,61)" index="4218" value="1"/>
  <variable name="Y(29,72)" index="4383" value="1"/>
  <variable name="Y(30,76)" index="4541" value="1"/>
  <variable name="Y(31,78)" index="4696" value="1"/>
  <variable name="Y(32,79)" index="4851" value="1"/>
  <variable name="Y(44,2)" index="6623" value="1"/>
  <variable name="Y(50,12)" index="7557" value="1"/>
  <variable name="Y(51,13)" index="7712" value="1"/>
  <variable name="Y(54,17)" index="8178" value="1"/>
  <variable name="Y(57,20)" index="8643" value="1"/>
  <variable name="Y(58,21)" index="8798" value="1"/>
  <variable name="Y(59,22)" index="8953" value="1"/>
  <variable name="Y(60,23)" index="9108" value="1"/>
  <variable name="Y(61,24)" index="9263" value="1"/>
  <variable name="Y(63,31)" index="9578" value="1"/>
  <variable name="Y(66,34)" index="10043" value="1"/>
  <variable name="Y(69,37)" index="10508" value="1"/>
  <variable name="Y(70,38)" index="10663" value="1"/>
  <variable name="Y(72,40)" index="10973" value="1"/>
  <variable name="Y(73,41)" index="11128" value="1"/>
  <variable name="Y(74,42)" index="11283" value="1"/>
  <variable name="Y(86,68)" index="13157" value="1"/>
  <variable name="Y(87,70)" index="13313" value="1"/>
  <variable name="Y(89,74)" index="13625" value="1"/>
  <variable name="Y(90,75)" index="13780" value="1"/>
  <variable name="Y(94,80)" index="14400" value="1"/>
  <variable name="Y(281,48)" index="43167" value="1"/>
  <variable name="Y(282,49)" index="43322" value="1"/>
  <variable name="Y(284,52)" index="43633" value="1"/>
  <variable name="Y(291,62)" index="44721" value="1"/>
  <variable name="Y(292,64)" index="44877" value="1"/>
  <variable name="Y(293,65)" index="45032" value="1"/>
  <variable name="Y(303,82)" index="46588" value="1"/>
  <variable name="Y(304,84)" index="46743" value="1"/>
  <variable name="Y(365,3)" index="56058" value="1"/>
  <variable name="Y(366,4)" index="56213" value="1"/>
  <variable name="Y(385,27)" index="59162" value="1"/>
  <variable name="Y(398,43)" index="61180" value="1"/>
  <variable name="Y(405,50)" index="62265" value="1"/>
  <variable name="Y(411,57)" index="63196" value="1"/>
  <variable name="Y(416,63)" index="63972" value="1"/>
  <variable name="Y(419,66)" index="64437" value="1"/>
  <variable name="Y(420,67)" index="64592" value="1"/>
  <variable name="Y(422,69)" index="64902" value="1"/>
  <variable name="Y(424,71)" index="65212" value="1"/>
  <variable name="Y(432,81)" index="66453" value="1"/>
  <variable name="X(1,44,16)" index="214845" value="1"/>
  <variable name="X(1,45,1)" index="216225" value="1"/>
  <variable name="X(2,45,16)" index="217635" value="1"/>
  <variable name="X(2,46,1)" index="219015" value="1"/>
  <variable name="X(2,72,4)" index="220413" value="1"/>
  <variable name="X(2,86,44)" index="221848" value="1"/>
  <variable name="X(3,4,33)" index="223232" value="1"/>
  <variable name="X(3,57,304)" index="224898" value="1"/>
  <variable name="X(3,87,365)" index="226354" value="1"/>
  <variable name="X(4,3,304)" index="227688" value="1"/>
  <variable name="X(4,54,33)" index="228812" value="1"/>
  <variable name="X(4,88,366)" index="230540" value="1"/>
  <variable name="X(5,11,38)" index="231607" value="1"/>
  <variable name="X(5,66,3)" index="232967" value="1"/>
  <variable name="X(5,89,2)" index="234361" value="1"/>
  <variable name="X(6,26,39)" index="235793" value="1"/>
  <variable name="X(6,28,385)" index="237534" value="1"/>
  <variable name="X(6,53,41)" index="238585" value="1"/>
  <variable name="X(6,66,44)" index="239983" value="1"/>
  <variable name="X(6,90,3)" index="241337" value="1"/>
  <variable name="X(7,55,10)" index="242739" value="1"/>
  <variable name="X(7,72,88)" index="244212" value="1"/>
  <variable name="X(7,91,4)" index="245523" value="1"/>
  <variable name="X(8,30,1)" index="246915" value="1"/>
  <variable name="X(8,31,44)" index="248353" value="1"/>
  <variable name="X(9,10,2)" index="249706" value="1"/>
  <variable name="X(9,76,44)" index="251143" value="1"/>
  <variable name="X(9,93,5)" index="252499" value="1"/>
  <variable name="X(10,9,44)" index="253933" value="1"/>
  <variable name="X(10,11,2)" index="255286" value="1"/>
  <variable name="X(10,94,6)" index="256685" value="1"/>
  <variable name="X(11,5,2)" index="258076" value="1"/>
  <variable name="X(11,10,44)" index="259513" value="1"/>
  <variable name="X(11,56,38)" index="260902" value="1"/>
  <variable name="X(11,95,7)" index="262266" value="1"/>
  <variable name="X(12,56,144)" index="263798" value="1"/>
  <variable name="X(12,61,9)" index="265058" value="1"/>
  <variable name="X(12,96,50)" index="266494" value="1"/>
  <variable name="X(13,60,27)" index="267866" value="1"/>
  <variable name="X(13,67,420)" index="269654" value="1"/>
  <variable name="X(13,97,51)" index="270680" value="1"/>
  <variable name="X(14,37,69)" index="272093" value="1"/>
  <variable name="X(14,56,1)" index="273420" value="1"/>
  <variable name="X(14,76,144)" index="274958" value="1"/>
  <variable name="X(14,98,8)" index="276217" value="1"/>
  <variable name="X(15,20,226)" index="277830" value="1"/>
  <variable name="X(15,59,26)" index="279025" value="1"/>
  <variable name="X(16,20,246)" index="280640" value="1"/>
  <variable name="X(16,59,288)" index="282077" value="1"/>
  <variable name="X(16,100,9)" index="283193" value="1"/>
  <variable name="X(17,19,305)" index="284884" value="1"/>
  <variable name="X(17,64,22)" index="285996" value="1"/>
  <variable name="X(17,101,54)" index="287423" value="1"/>
  <variable name="X(18,50,353)" index="289117" value="1"/>
  <variable name="X(18,79,332)" index="290491" value="1"/>
  <variable name="X(18,102,10)" index="291564" value="1"/>
  <variable name="X(19,17,22)" index="292971" value="1"/>
  <variable name="X(19,22,10)" index="294354" value="1"/>
  <variable name="X(19,23,46)" index="295785" value="1"/>
  <variable name="X(19,32,12)" index="297146" value="1"/>
  <variable name="X(19,103,11)" index="298540" value="1"/>
  <variable name="X(20,15,26)" index="299950" value="1"/>
  <variable name="X(20,16,9)" index="301328" value="1"/>
  <variable name="X(20,33,14)" index="302728" value="1"/>
  <variable name="X(20,34,226)" index="304335" value="1"/>
  <variable name="X(20,39,236)" index="305740" value="1"/>
  <variable name="X(20,60,84)" index="306983" value="1"/>
  <variable name="X(20,104,57)" index="308351" value="1"/>
  <variable name="X(21,23,10)" index="309699" value="1"/>
  <variable name="X(21,49,46)" index="311130" value="1"/>
  <variable name="X(21,105,58)" index="312537" value="1"/>
  <variable name="X(22,19,332)" index="314206" value="1"/>
  <variable name="X(22,62,10)" index="315279" value="1"/>
  <variable name="X(22,106,59)" index="316723" value="1"/>
  <variable name="X(23,19,10)" index="318069" value="1"/>
  <variable name="X(23,21,46)" index="319500" value="1"/>
  <variable name="X(23,107,60)" index="320909" value="1"/>
  <variable name="X(24,26,12)" index="322256" value="1"/>
  <variable name="X(24,32,39)" index="323678" value="1"/>
  <variable name="X(24,108,61)" index="325095" value="1"/>
  <variable name="X(25,29,468)" index="326897" value="1"/>
  <variable name="X(25,32,467)" index="328291" value="1"/>
  <variable name="X(26,6,96)" index="329315" value="1"/>
  <variable name="X(26,24,39)" index="330653" value="1"/>
  <variable name="X(26,110,12)" index="332021" value="1"/>
  <variable name="X(27,28,468)" index="333872" value="1"/>
  <variable name="X(27,29,483)" index="335282" value="1"/>
  <variable name="X(27,111,385)" index="336579" value="1"/>
  <variable name="X(28,6,468)" index="338057" value="1"/>
  <variable name="X(28,27,385)" index="339369" value="1"/>
  <variable name="X(29,25,483)" index="340862" value="1"/>
  <variable name="X(29,27,468)" index="342242" value="1"/>
  <variable name="X(30,8,44)" index="343213" value="1"/>
  <variable name="X(30,76,1)" index="344565" value="1"/>
  <variable name="X(31,8,1)" index="345960" value="1"/>
  <variable name="X(31,46,44)" index="347398" value="1"/>
  <variable name="X(31,115,63)" index="348812" value="1"/>
  <variable name="X(32,19,39)" index="350183" value="1"/>
  <variable name="X(32,24,12)" index="351551" value="1"/>
  <variable name="X(32,116,13)" index="352947" value="1"/>
  <variable name="X(33,20,532)" index="354861" value="1"/>
  <variable name="X(33,117,14)" index="355738" value="1"/>
  <variable name="X(34,20,9)" index="357128" value="1"/>
  <variable name="X(34,61,226)" index="358740" value="1"/>
  <variable name="X(34,118,66)" index="359975" value="1"/>
  <variable name="X(35,80,559)" index="361863" value="1"/>
  <variable name="X(35,82,303)" index="363002" value="1"/>
  <variable name="X(35,119,15)" index="364109" value="1"/>
  <variable name="X(36,41,33)" index="365522" value="1"/>
  <variable name="X(36,54,24)" index="366908" value="1"/>
  <variable name="X(36,120,16)" index="368295" value="1"/>
  <variable name="X(37,14,598)" index="370272" value="1"/>
  <variable name="X(37,81,432)" index="371501" value="1"/>
  <variable name="X(37,121,69)" index="372533" value="1"/>
  <variable name="X(38,39,17)" index="373876" value="1"/>
  <variable name="X(38,61,632)" index="375886" value="1"/>
  <variable name="X(38,122,70)" index="376719" value="1"/>
  <variable name="X(39,20,639)" index="378683" value="1"/>
  <variable name="X(39,38,272)" index="379711" value="1"/>
  <variable name="X(39,60,650)" index="381484" value="1"/>
  <variable name="X(39,123,17)" index="382246" value="1"/>
  <variable name="X(40,41,680)" index="384304" value="1"/>
  <variable name="X(40,124,72)" index="385091" value="1"/>
  <variable name="X(41,36,16)" index="386430" value="1"/>
  <variable name="X(41,40,72)" index="387881" value="1"/>
  <variable name="X(41,42,33)" index="389237" value="1"/>
  <variable name="X(41,125,73)" index="390672" value="1"/>
  <variable name="X(42,41,16)" index="392010" value="1"/>
  <variable name="X(42,43,398)" index="393787" value="1"/>
  <variable name="X(42,44,33)" index="394817" value="1"/>
  <variable name="X(42,126,74)" index="396253" value="1"/>
  <variable name="X(43,127,398)" index="397972" value="1"/>
  <variable name="X(44,1,33)" index="399002" value="1"/>
  <variable name="X(44,42,16)" index="400380" value="1"/>
  <variable name="X(44,128,18)" index="401777" value="1"/>
  <variable name="X(45,1,16)" index="403170" value="1"/>
  <variable name="X(45,2,1)" index="404550" value="1"/>
  <variable name="X(45,129,19)" index="405963" value="1"/>
  <variable name="X(46,2,44)" index="407383" value="1"/>
  <variable name="X(46,31,1)" index="408735" value="1"/>
  <variable name="X(46,130,20)" index="410149" value="1"/>
  <variable name="X(47,48,10)" index="411534" value="1"/>
  <variable name="X(47,70,332)" index="413251" value="1"/>
  <variable name="X(47,131,21)" index="414335" value="1"/>
  <variable name="X(48,47,332)" index="416041" value="1"/>
  <variable name="X(48,79,10)" index="417114" value="1"/>
  <variable name="X(48,132,281)" index="418780" value="1"/>
  <variable name="X(49,21,10)" index="419904" value="1"/>
  <variable name="X(49,55,46)" index="421335" value="1"/>
  <variable name="X(49,133,282)" index="422966" value="1"/>
  <variable name="X(50,18,801)" index="424880" value="1"/>
  <variable name="X(50,73,353)" index="425827" value="1"/>
  <variable name="X(50,134,405)" index="427274" value="1"/>
  <variable name="X(51,63,774)" index="429038" value="1"/>
  <variable name="X(51,71,424)" index="430083" value="1"/>
  <variable name="X(51,135,22)" index="431076" value="1"/>
  <variable name="X(52,68,353)" index="432802" value="1"/>
  <variable name="X(52,73,801)" index="434645" value="1"/>
  <variable name="X(52,136,284)" index="435523" value="1"/>
  <variable name="X(53,6,146)" index="436780" value="1"/>
  <variable name="X(53,61,41)" index="438070" value="1"/>
  <variable name="X(53,137,23)" index="439447" value="1"/>
  <variable name="X(54,4,304)" index="441123" value="1"/>
  <variable name="X(54,36,33)" index="442247" value="1"/>
  <variable name="X(54,138,24)" index="443633" value="1"/>
  <variable name="X(55,7,46)" index="445050" value="1"/>
  <variable name="X(55,49,10)" index="446409" value="1"/>
  <variable name="X(56,11,145)" index="447939" value="1"/>
  <variable name="X(56,12,9)" index="449198" value="1"/>
  <variable name="X(56,14,38)" index="450622" value="1"/>
  <variable name="X(56,67,27)" index="452006" value="1"/>
  <variable name="X(56,140,1)" index="453375" value="1"/>
  <variable name="X(57,3,913)" index="455682" value="1"/>
  <variable name="X(57,84,304)" index="456468" value="1"/>
  <variable name="X(57,141,411)" index="457970" value="1"/>
  <variable name="X(58,59,945)" index="459899" value="1"/>
  <variable name="X(58,65,293)" index="460642" value="1"/>
  <variable name="X(59,15,945)" index="462689" value="1"/>
  <variable name="X(59,16,230)" index="463369" value="1"/>
  <variable name="X(59,58,293)" index="464827" value="1"/>
  <variable name="X(59,143,26)" index="465955" value="1"/>
  <variable name="X(60,13,254)" index="467578" value="1"/>
  <variable name="X(60,20,1006)" index="469725" value="1"/>
  <variable name="X(60,39,1016)" index="471130" value="1"/>
  <variable name="X(60,144,27)" index="471536" value="1"/>
  <variable name="X(61,12,50)" index="472954" value="1"/>
  <variable name="X(61,34,9)" index="474308" value="1"/>
  <variable name="X(61,38,17)" index="475711" value="1"/>
  <variable name="X(61,53,23)" index="477112" value="1"/>
  <variable name="X(61,145,28)" index="478512" value="1"/>
  <variable name="X(62,22,332)" index="480211" value="1"/>
  <variable name="X(62,70,10)" index="481284" value="1"/>
  <variable name="X(62,146,291)" index="482960" value="1"/>
  <variable name="X(63,51,22)" index="484086" value="1"/>
  <variable name="X(63,64,774)" index="486233" value="1"/>
  <variable name="X(63,147,416)" index="487270" value="1"/>
  <variable name="X(64,17,774)" index="489023" value="1"/>
  <variable name="X(64,63,22)" index="489666" value="1"/>
  <variable name="X(64,148,292)" index="491331" value="1"/>
  <variable name="X(65,58,1098)" index="493532" value="1"/>
  <variable name="X(65,149,293)" index="494122" value="1"/>
  <variable name="X(66,5,44)" index="495268" value="1"/>
  <variable name="X(66,6,3)" index="496622" value="1"/>
  <variable name="X(66,150,419)" index="498433" value="1"/>
  <variable name="X(67,13,27)" index="499436" value="1"/>
  <variable name="X(67,56,1004)" index="501808" value="1"/>
  <variable name="X(67,151,420)" index="502619" value="1"/>
  <variable name="X(68,52,284)" index="503878" value="1"/>
  <variable name="X(68,69,353)" index="505342" value="1"/>
  <variable name="X(68,152,86)" index="506470" value="1"/>
  <variable name="X(69,68,86)" index="507865" value="1"/>
  <variable name="X(69,70,781)" index="509955" value="1"/>
  <variable name="X(69,71,353)" index="510922" value="1"/>
  <variable name="X(69,153,422)" index="512386" value="1"/>
  <variable name="X(70,47,10)" index="513369" value="1"/>
  <variable name="X(70,62,332)" index="515086" value="1"/>
  <variable name="X(70,69,86)" index="516235" value="1"/>
  <variable name="X(70,154,87)" index="517631" value="1"/>
  <variable name="X(71,51,353)" index="519292" value="1"/>
  <variable name="X(71,69,781)" index="521115" value="1"/>
  <variable name="X(71,155,424)" index="522153" value="1"/>
  <variable name="X(72,2,95)" index="523219" value="1"/>
  <variable name="X(72,7,4)" index="524523" value="1"/>
  <variable name="X(72,156,29)" index="525943" value="1"/>
  <variable name="X(73,50,801)" index="528110" value="1"/>
  <variable name="X(73,52,353)" index="529057" value="1"/>
  <variable name="X(74,158,89)" index="530188" value="1"/>
  <variable name="X(75,74,89)" index="531583" value="1"/>
  <variable name="X(75,79,1237)" index="534126" value="1"/>
  <variable name="X(75,159,90)" index="534374" value="1"/>
  <variable name="X(76,9,2)" index="535681" value="1"/>
  <variable name="X(76,14,1)" index="537075" value="1"/>
  <variable name="X(76,30,44)" index="538513" value="1"/>
  <variable name="X(76,160,30)" index="539894" value="1"/>
  <variable name="X(78,79,559)" index="541818" value="1"/>
  <variable name="X(78,80,15)" index="542669" value="1"/>
  <variable name="X(78,162,31)" index="544080" value="1"/>
  <variable name="X(79,18,10)" index="545454" value="1"/>
  <variable name="X(79,48,332)" index="547171" value="1"/>
  <variable name="X(79,75,89)" index="548323" value="1"/>
  <variable name="X(79,78,15)" index="549644" value="1"/>
  <variable name="X(79,163,32)" index="551056" value="1"/>
  <variable name="X(80,35,15)" index="552434" value="1"/>
  <variable name="X(80,78,559)" index="554373" value="1"/>
  <variable name="X(80,164,94)" index="555303" value="1"/>
  <variable name="X(81,37,1384)" index="557988" value="1"/>
  <variable name="X(81,165,432)" index="558431" value="1"/>
  <variable name="X(82,35,1393)" index="560787" value="1"/>
  <variable name="X(82,166,303)" index="561092" value="1"/>
  <variable name="X(84,168,304)" index="562488" value="1"/>
 </variables>
</CPLEXSolution>
